c generated by sgen
p cnf 41 92
-2 -3 -4 0
-1 -3 -4 0
-1 -2 -4 0
-1 -2 -3 0
-6 -7 -8 0
-5 -7 -8 0
-5 -6 -8 0
-5 -6 -7 0
-10 -11 -12 0
-9 -11 -12 0
-9 -10 -12 0
-9 -10 -11 0
-14 -15 -16 0
-13 -15 -16 0
-13 -14 -16 0
-13 -14 -15 0
-18 -19 -20 0
-17 -19 -20 0
-17 -18 -20 0
-17 -18 -19 0
-22 -23 -24 0
-21 -23 -24 0
-21 -22 -24 0
-21 -22 -23 0
-26 -27 -28 0
-25 -27 -28 0
-25 -26 -28 0
-25 -26 -27 0
-30 -31 -32 0
-29 -31 -32 0
-29 -30 -32 0
-29 -30 -31 0
-34 -35 -36 0
-33 -35 -36 0
-33 -34 -36 0
-33 -34 -35 0
-37 -38 -39 0
-37 -38 -40 0
-37 -38 -41 0
-37 -39 -40 0
-37 -39 -41 0
-37 -40 -41 0
-38 -39 -40 0
-38 -39 -41 0
-38 -40 -41 0
-39 -40 -41 0
16 12 41 0
18 12 41 0
18 16 41 0
18 16 12 0
30 15 4 0
33 15 4 0
33 30 4 0
33 30 15 0
22 3 36 0
19 3 36 0
19 22 36 0
19 22 3 0
29 20 6 0
38 20 6 0
38 29 6 0
38 29 20 0
24 25 31 0
17 25 31 0
17 24 31 0
17 24 25 0
9 5 1 0
21 5 1 0
21 9 1 0
21 9 5 0
14 39 23 0
7 39 23 0
7 14 23 0
7 14 39 0
35 27 8 0
11 27 8 0
11 35 8 0
11 35 27 0
13 26 40 0
34 26 40 0
34 13 40 0
34 13 26 0
2 32 37 0
2 32 28 0
2 32 10 0
2 37 28 0
2 37 10 0
2 28 10 0
32 37 28 0
32 37 10 0
32 28 10 0
37 28 10 0
